# Escenario generado automaticamente: adr_bajo

param alpha := 0.5;
param fecha_hoy := 45984;
param s := 100;

set I := P1 P2 P3 P4 P5 P6 P7 P8 P9 P10 P11 P12 P13 P14 P15 P16 P17 P18 P19 P20 P21 P22 P23 P24 P25 P26 P27 P28 P29 P30 P31 P32 P33 P34 P35 P36 P37 P38 P39 P40 P41 P42 P43 P44 P45 P46 P47 P48 P49 P50 P51 P52 P53 P54 P55 P56 P57 P58 P59 P60 P61 P62 P63 P64 P65 P66 P67 P68 P69 P70 P71 P72 P73 P74 P75 P76 P77 P78 P79 P80 P81 P82 P83 P84 P85 P86 P87 P88 P89 P90 P91 P92 P93 P94 P95 P96 P97 P98 P99 P100 P101 P102 P103 P104 P105 P106 P107 P108 P109 P110 P111 P112 P113 P114 P115 P116 P117 P118 P119 P120 P121 P122 P123 P124 P125 P126 P127 P128 P129 P130 P131 P132 P133 P134 P135 P136 P137 P138 P139 P140 P141 P142 P143 P144 P145 P146 P147 P148 P149 P150 P151 P152 P153 P154 P155 P156 P157 P158 P159 P160 P161 P162 P163 P164 P165 P166 P167 P168 P169 P170 P171 P172 P173 P174 P175 P176 P177 P178 P179 P180 P181 P182 P183 P184 P185 P186 P187 P188 P189 P190 P191 P192 P193 P194 P195 P196 P197 P198 P199 P200;
set C := C1 C2 C3 C4 C5 C6 C7 C8 C9 C10 C11 C12 C13 C14 C15;
set J := T1 T2 T3 T4 T5 T6 T7 T8 T9 T10 T11 T12 T13 T14 T15;

param dist_c :=
  'C1' 48
  'C2' 34
  'C3' 70
  'C4' 39
  'C5' 60
  'C6' 64
  'C7' 46
  'C8' 96
  'C9' 34
  'C10' 44
  'C11' 98
  'C12' 12
  'C13' 26
  'C14' 18
  'C15' 4
;

param F :=
  'T1' 700
  'T2' 350
  'T3' 700
  'T4' 350
  'T5' 350
  'T6' 700
  'T7' 350
  'T8' 350
  'T9' 350
  'T10' 700
  'T11' 700
  'T12' 700
  'T13' 550
  'T14' 550
  'T15' 700
;
param ADRmax :=
  'T1' 5
  'T2' 0
  'T3' 5
  'T4' 0
  'T5' 0
  'T6' 5
  'T7' 0
  'T8' 0
  'T9' 0
  'T10' 5
  'T11' 5
  'T12' 5
  'T13' 0
  'T14' 0
  'T15' 5
;
param W :=
  'T1' 3500
  'T2' 1000
  'T3' 3500
  'T4' 1000
  'T5' 1000
  'T6' 3500
  'T7' 1000
  'T8' 1000
  'T9' 1000
  'T10' 3500
  'T11' 3500
  'T12' 3500
  'T13' 2500
  'T14' 2500
  'T15' 3500
;
param V :=
  'T1' 25
  'T2' 10
  'T3' 25
  'T4' 10
  'T5' 10
  'T6' 25
  'T7' 10
  'T8' 10
  'T9' 10
  'T10' 25
  'T11' 25
  'T12' 25
  'T13' 18
  'T14' 18
  'T15' 25
;
param Pmax :=
  'T1' 9
  'T2' 6
  'T3' 6
  'T4' 9
  'T5' 8
  'T6' 9
  'T7' 10
  'T8' 4
  'T9' 5
  'T10' 7
  'T11' 5
  'T12' 4
  'T13' 4
  'T14' 9
  'T15' 5
;

param pes :=
  'P1' 294
  'P2' 149
  'P3' 250
  'P4' 172
  'P5' 154
  'P6' 255
  'P7' 182
  'P8' 129
  'P9' 208
  'P10' 207
  'P11' 247
  'P12' 155
  'P13' 129
  'P14' 279
  'P15' 284
  'P16' 117
  'P17' 208
  'P18' 288
  'P19' 245
  'P20' 126
  'P21' 121
  'P22' 235
  'P23' 286
  'P24' 296
  'P25' 172
  'P26' 180
  'P27' 281
  'P28' 288
  'P29' 109
  'P30' 175
  'P31' 205
  'P32' 223
  'P33' 166
  'P34' 154
  'P35' 275
  'P36' 148
  'P37' 115
  'P38' 145
  'P39' 235
  'P40' 272
  'P41' 201
  'P42' 209
  'P43' 288
  'P44' 169
  'P45' 182
  'P46' 140
  'P47' 114
  'P48' 130
  'P49' 127
  'P50' 171
  'P51' 177
  'P52' 134
  'P53' 227
  'P54' 161
  'P55' 159
  'P56' 233
  'P57' 132
  'P58' 100
  'P59' 242
  'P60' 275
  'P61' 123
  'P62' 250
  'P63' 142
  'P64' 292
  'P65' 126
  'P66' 238
  'P67' 264
  'P68' 107
  'P69' 229
  'P70' 220
  'P71' 259
  'P72' 118
  'P73' 135
  'P74' 243
  'P75' 167
  'P76' 115
  'P77' 157
  'P78' 208
  'P79' 280
  'P80' 290
  'P81' 294
  'P82' 210
  'P83' 107
  'P84' 129
  'P85' 252
  'P86' 121
  'P87' 161
  'P88' 109
  'P89' 135
  'P90' 180
  'P91' 137
  'P92' 122
  'P93' 180
  'P94' 216
  'P95' 159
  'P96' 190
  'P97' 148
  'P98' 191
  'P99' 204
  'P100' 264
  'P101' 287
  'P102' 285
  'P103' 228
  'P104' 268
  'P105' 190
  'P106' 104
  'P107' 147
  'P108' 199
  'P109' 235
  'P110' 232
  'P111' 177
  'P112' 285
  'P113' 181
  'P114' 146
  'P115' 209
  'P116' 154
  'P117' 227
  'P118' 158
  'P119' 137
  'P120' 196
  'P121' 196
  'P122' 245
  'P123' 118
  'P124' 288
  'P125' 278
  'P126' 291
  'P127' 132
  'P128' 234
  'P129' 219
  'P130' 183
  'P131' 227
  'P132' 117
  'P133' 265
  'P134' 292
  'P135' 270
  'P136' 146
  'P137' 259
  'P138' 160
  'P139' 275
  'P140' 112
  'P141' 215
  'P142' 274
  'P143' 178
  'P144' 198
  'P145' 291
  'P146' 166
  'P147' 178
  'P148' 114
  'P149' 187
  'P150' 113
  'P151' 289
  'P152' 144
  'P153' 217
  'P154' 195
  'P155' 197
  'P156' 292
  'P157' 128
  'P158' 146
  'P159' 248
  'P160' 140
  'P161' 290
  'P162' 107
  'P163' 214
  'P164' 255
  'P165' 180
  'P166' 164
  'P167' 293
  'P168' 157
  'P169' 186
  'P170' 200
  'P171' 116
  'P172' 208
  'P173' 166
  'P174' 289
  'P175' 260
  'P176' 259
  'P177' 161
  'P178' 159
  'P179' 124
  'P180' 218
  'P181' 173
  'P182' 155
  'P183' 128
  'P184' 240
  'P185' 162
  'P186' 284
  'P187' 155
  'P188' 192
  'P189' 142
  'P190' 161
  'P191' 253
  'P192' 270
  'P193' 161
  'P194' 189
  'P195' 230
  'P196' 182
  'P197' 237
  'P198' 165
  'P199' 237
  'P200' 268
;
param vol :=
  'P1' 3
  'P2' 1
  'P3' 2
  'P4' 2
  'P5' 2
  'P6' 1
  'P7' 2
  'P8' 1
  'P9' 1
  'P10' 1
  'P11' 1
  'P12' 1
  'P13' 1
  'P14' 1
  'P15' 1
  'P16' 2
  'P17' 1
  'P18' 1
  'P19' 3
  'P20' 1
  'P21' 3
  'P22' 1
  'P23' 2
  'P24' 2
  'P25' 2
  'P26' 3
  'P27' 2
  'P28' 2
  'P29' 3
  'P30' 1
  'P31' 3
  'P32' 2
  'P33' 2
  'P34' 3
  'P35' 2
  'P36' 3
  'P37' 3
  'P38' 2
  'P39' 3
  'P40' 2
  'P41' 1
  'P42' 3
  'P43' 2
  'P44' 2
  'P45' 2
  'P46' 3
  'P47' 2
  'P48' 1
  'P49' 3
  'P50' 2
  'P51' 3
  'P52' 1
  'P53' 3
  'P54' 2
  'P55' 2
  'P56' 3
  'P57' 1
  'P58' 2
  'P59' 3
  'P60' 2
  'P61' 2
  'P62' 2
  'P63' 3
  'P64' 1
  'P65' 1
  'P66' 2
  'P67' 3
  'P68' 2
  'P69' 2
  'P70' 3
  'P71' 3
  'P72' 3
  'P73' 1
  'P74' 1
  'P75' 3
  'P76' 1
  'P77' 3
  'P78' 1
  'P79' 1
  'P80' 1
  'P81' 1
  'P82' 2
  'P83' 1
  'P84' 1
  'P85' 1
  'P86' 1
  'P87' 1
  'P88' 1
  'P89' 1
  'P90' 1
  'P91' 1
  'P92' 1
  'P93' 2
  'P94' 2
  'P95' 2
  'P96' 2
  'P97' 1
  'P98' 3
  'P99' 2
  'P100' 2
  'P101' 1
  'P102' 1
  'P103' 1
  'P104' 2
  'P105' 3
  'P106' 1
  'P107' 2
  'P108' 2
  'P109' 1
  'P110' 1
  'P111' 1
  'P112' 1
  'P113' 2
  'P114' 3
  'P115' 2
  'P116' 2
  'P117' 2
  'P118' 2
  'P119' 2
  'P120' 2
  'P121' 2
  'P122' 2
  'P123' 1
  'P124' 1
  'P125' 2
  'P126' 3
  'P127' 2
  'P128' 3
  'P129' 1
  'P130' 1
  'P131' 2
  'P132' 1
  'P133' 1
  'P134' 1
  'P135' 1
  'P136' 3
  'P137' 3
  'P138' 3
  'P139' 2
  'P140' 3
  'P141' 1
  'P142' 2
  'P143' 1
  'P144' 1
  'P145' 2
  'P146' 3
  'P147' 1
  'P148' 3
  'P149' 1
  'P150' 2
  'P151' 1
  'P152' 2
  'P153' 2
  'P154' 2
  'P155' 3
  'P156' 1
  'P157' 2
  'P158' 3
  'P159' 3
  'P160' 2
  'P161' 3
  'P162' 1
  'P163' 3
  'P164' 1
  'P165' 2
  'P166' 1
  'P167' 2
  'P168' 2
  'P169' 2
  'P170' 1
  'P171' 3
  'P172' 3
  'P173' 1
  'P174' 1
  'P175' 2
  'P176' 3
  'P177' 1
  'P178' 1
  'P179' 2
  'P180' 1
  'P181' 3
  'P182' 3
  'P183' 3
  'P184' 3
  'P185' 1
  'P186' 2
  'P187' 1
  'P188' 3
  'P189' 3
  'P190' 2
  'P191' 1
  'P192' 2
  'P193' 1
  'P194' 3
  'P195' 2
  'P196' 2
  'P197' 3
  'P198' 2
  'P199' 1
  'P200' 1
;
param adr :=
  'P1' 0
  'P2' 0
  'P3' 0
  'P4' 0
  'P5' 0
  'P6' 1
  'P7' 0
  'P8' 1
  'P9' 0
  'P10' 0
  'P11' 0
  'P12' 0
  'P13' 0
  'P14' 0
  'P15' 1
  'P16' 1
  'P17' 0
  'P18' 0
  'P19' 0
  'P20' 0
  'P21' 0
  'P22' 0
  'P23' 1
  'P24' 0
  'P25' 0
  'P26' 0
  'P27' 0
  'P28' 0
  'P29' 1
  'P30' 0
  'P31' 0
  'P32' 1
  'P33' 0
  'P34' 0
  'P35' 1
  'P36' 0
  'P37' 0
  'P38' 0
  'P39' 1
  'P40' 1
  'P41' 1
  'P42' 0
  'P43' 0
  'P44' 0
  'P45' 0
  'P46' 0
  'P47' 0
  'P48' 0
  'P49' 1
  'P50' 1
  'P51' 0
  'P52' 0
  'P53' 0
  'P54' 1
  'P55' 0
  'P56' 0
  'P57' 0
  'P58' 0
  'P59' 0
  'P60' 1
  'P61' 0
  'P62' 1
  'P63' 0
  'P64' 0
  'P65' 0
  'P66' 0
  'P67' 1
  'P68' 0
  'P69' 1
  'P70' 0
  'P71' 0
  'P72' 0
  'P73' 1
  'P74' 0
  'P75' 0
  'P76' 0
  'P77' 0
  'P78' 0
  'P79' 0
  'P80' 0
  'P81' 0
  'P82' 0
  'P83' 0
  'P84' 1
  'P85' 0
  'P86' 0
  'P87' 0
  'P88' 0
  'P89' 0
  'P90' 0
  'P91' 0
  'P92' 0
  'P93' 0
  'P94' 1
  'P95' 0
  'P96' 0
  'P97' 0
  'P98' 1
  'P99' 0
  'P100' 0
  'P101' 0
  'P102' 0
  'P103' 0
  'P104' 1
  'P105' 1
  'P106' 1
  'P107' 1
  'P108' 0
  'P109' 0
  'P110' 0
  'P111' 0
  'P112' 1
  'P113' 0
  'P114' 0
  'P115' 1
  'P116' 1
  'P117' 0
  'P118' 0
  'P119' 0
  'P120' 1
  'P121' 0
  'P122' 1
  'P123' 0
  'P124' 1
  'P125' 0
  'P126' 0
  'P127' 0
  'P128' 0
  'P129' 0
  'P130' 0
  'P131' 0
  'P132' 0
  'P133' 0
  'P134' 0
  'P135' 1
  'P136' 0
  'P137' 0
  'P138' 0
  'P139' 0
  'P140' 0
  'P141' 1
  'P142' 1
  'P143' 0
  'P144' 0
  'P145' 0
  'P146' 0
  'P147' 0
  'P148' 0
  'P149' 1
  'P150' 1
  'P151' 0
  'P152' 0
  'P153' 0
  'P154' 0
  'P155' 0
  'P156' 0
  'P157' 0
  'P158' 0
  'P159' 1
  'P160' 0
  'P161' 0
  'P162' 1
  'P163' 0
  'P164' 0
  'P165' 1
  'P166' 1
  'P167' 1
  'P168' 1
  'P169' 0
  'P170' 0
  'P171' 0
  'P172' 1
  'P173' 0
  'P174' 0
  'P175' 0
  'P176' 0
  'P177' 0
  'P178' 0
  'P179' 0
  'P180' 0
  'P181' 0
  'P182' 0
  'P183' 0
  'P184' 0
  'P185' 0
  'P186' 1
  'P187' 0
  'P188' 0
  'P189' 0
  'P190' 0
  'P191' 0
  'P192' 0
  'P193' 0
  'P194' 0
  'P195' 0
  'P196' 0
  'P197' 0
  'P198' 1
  'P199' 0
  'P200' 0
;
param t :=
  'P1' 350
  'P2' 350
  'P3' 350
  'P4' 350
  'P5' 350
  'P6' 350
  'P7' 350
  'P8' 350
  'P9' 350
  'P10' 350
  'P11' 350
  'P12' 350
  'P13' 350
  'P14' 350
  'P15' 350
  'P16' 350
  'P17' 350
  'P18' 350
  'P19' 350
  'P20' 350
  'P21' 350
  'P22' 350
  'P23' 350
  'P24' 350
  'P25' 350
  'P26' 350
  'P27' 350
  'P28' 350
  'P29' 350
  'P30' 350
  'P31' 350
  'P32' 350
  'P33' 350
  'P34' 350
  'P35' 350
  'P36' 350
  'P37' 350
  'P38' 350
  'P39' 350
  'P40' 350
  'P41' 350
  'P42' 350
  'P43' 350
  'P44' 350
  'P45' 350
  'P46' 350
  'P47' 350
  'P48' 350
  'P49' 350
  'P50' 350
  'P51' 350
  'P52' 350
  'P53' 350
  'P54' 350
  'P55' 350
  'P56' 350
  'P57' 350
  'P58' 350
  'P59' 350
  'P60' 350
  'P61' 350
  'P62' 350
  'P63' 350
  'P64' 350
  'P65' 350
  'P66' 350
  'P67' 350
  'P68' 350
  'P69' 350
  'P70' 350
  'P71' 350
  'P72' 350
  'P73' 350
  'P74' 350
  'P75' 350
  'P76' 350
  'P77' 350
  'P78' 350
  'P79' 350
  'P80' 350
  'P81' 350
  'P82' 350
  'P83' 350
  'P84' 350
  'P85' 350
  'P86' 350
  'P87' 350
  'P88' 350
  'P89' 350
  'P90' 350
  'P91' 350
  'P92' 350
  'P93' 350
  'P94' 350
  'P95' 350
  'P96' 350
  'P97' 350
  'P98' 350
  'P99' 350
  'P100' 350
  'P101' 350
  'P102' 350
  'P103' 350
  'P104' 350
  'P105' 350
  'P106' 350
  'P107' 350
  'P108' 350
  'P109' 350
  'P110' 350
  'P111' 350
  'P112' 350
  'P113' 350
  'P114' 350
  'P115' 350
  'P116' 350
  'P117' 350
  'P118' 350
  'P119' 350
  'P120' 350
  'P121' 350
  'P122' 350
  'P123' 350
  'P124' 350
  'P125' 350
  'P126' 350
  'P127' 350
  'P128' 350
  'P129' 350
  'P130' 350
  'P131' 350
  'P132' 350
  'P133' 350
  'P134' 350
  'P135' 350
  'P136' 350
  'P137' 350
  'P138' 350
  'P139' 350
  'P140' 350
  'P141' 350
  'P142' 350
  'P143' 350
  'P144' 350
  'P145' 350
  'P146' 350
  'P147' 350
  'P148' 350
  'P149' 350
  'P150' 350
  'P151' 350
  'P152' 350
  'P153' 350
  'P154' 350
  'P155' 350
  'P156' 350
  'P157' 350
  'P158' 350
  'P159' 350
  'P160' 350
  'P161' 350
  'P162' 350
  'P163' 350
  'P164' 350
  'P165' 350
  'P166' 350
  'P167' 350
  'P168' 350
  'P169' 350
  'P170' 350
  'P171' 350
  'P172' 350
  'P173' 350
  'P174' 350
  'P175' 350
  'P176' 350
  'P177' 350
  'P178' 350
  'P179' 350
  'P180' 350
  'P181' 350
  'P182' 350
  'P183' 350
  'P184' 350
  'P185' 350
  'P186' 350
  'P187' 350
  'P188' 350
  'P189' 350
  'P190' 350
  'P191' 350
  'P192' 350
  'P193' 350
  'P194' 350
  'P195' 350
  'P196' 350
  'P197' 350
  'P198' 350
  'P199' 350
  'P200' 350
;
param fecha :=
  'P1' 45984
  'P2' 45984
  'P3' 45984
  'P4' 45984
  'P5' 45984
  'P6' 45984
  'P7' 45984
  'P8' 45985
  'P9' 45984
  'P10' 45984
  'P11' 45984
  'P12' 45984
  'P13' 45984
  'P14' 45985
  'P15' 45984
  'P16' 45984
  'P17' 45984
  'P18' 45985
  'P19' 45984
  'P20' 45985
  'P21' 45985
  'P22' 45985
  'P23' 45984
  'P24' 45985
  'P25' 45984
  'P26' 45984
  'P27' 45985
  'P28' 45984
  'P29' 45984
  'P30' 45984
  'P31' 45984
  'P32' 45984
  'P33' 45984
  'P34' 45985
  'P35' 45985
  'P36' 45984
  'P37' 45984
  'P38' 45985
  'P39' 45984
  'P40' 45985
  'P41' 45985
  'P42' 45984
  'P43' 45985
  'P44' 45985
  'P45' 45984
  'P46' 45985
  'P47' 45984
  'P48' 45984
  'P49' 45984
  'P50' 45985
  'P51' 45984
  'P52' 45985
  'P53' 45984
  'P54' 45984
  'P55' 45984
  'P56' 45985
  'P57' 45984
  'P58' 45985
  'P59' 45984
  'P60' 45984
  'P61' 45985
  'P62' 45985
  'P63' 45984
  'P64' 45984
  'P65' 45985
  'P66' 45985
  'P67' 45984
  'P68' 45985
  'P69' 45985
  'P70' 45984
  'P71' 45984
  'P72' 45984
  'P73' 45984
  'P74' 45984
  'P75' 45985
  'P76' 45984
  'P77' 45985
  'P78' 45984
  'P79' 45984
  'P80' 45984
  'P81' 45984
  'P82' 45984
  'P83' 45985
  'P84' 45984
  'P85' 45985
  'P86' 45985
  'P87' 45984
  'P88' 45984
  'P89' 45985
  'P90' 45985
  'P91' 45985
  'P92' 45985
  'P93' 45985
  'P94' 45984
  'P95' 45984
  'P96' 45984
  'P97' 45984
  'P98' 45985
  'P99' 45984
  'P100' 45984
  'P101' 45984
  'P102' 45985
  'P103' 45985
  'P104' 45985
  'P105' 45985
  'P106' 45984
  'P107' 45984
  'P108' 45985
  'P109' 45984
  'P110' 45984
  'P111' 45984
  'P112' 45985
  'P113' 45984
  'P114' 45984
  'P115' 45984
  'P116' 45984
  'P117' 45984
  'P118' 45985
  'P119' 45985
  'P120' 45985
  'P121' 45984
  'P122' 45984
  'P123' 45984
  'P124' 45985
  'P125' 45984
  'P126' 45984
  'P127' 45984
  'P128' 45984
  'P129' 45985
  'P130' 45984
  'P131' 45985
  'P132' 45984
  'P133' 45984
  'P134' 45985
  'P135' 45984
  'P136' 45984
  'P137' 45984
  'P138' 45984
  'P139' 45984
  'P140' 45984
  'P141' 45984
  'P142' 45984
  'P143' 45984
  'P144' 45984
  'P145' 45984
  'P146' 45984
  'P147' 45984
  'P148' 45984
  'P149' 45984
  'P150' 45984
  'P151' 45985
  'P152' 45984
  'P153' 45984
  'P154' 45984
  'P155' 45984
  'P156' 45984
  'P157' 45984
  'P158' 45984
  'P159' 45984
  'P160' 45984
  'P161' 45984
  'P162' 45985
  'P163' 45984
  'P164' 45984
  'P165' 45984
  'P166' 45984
  'P167' 45984
  'P168' 45985
  'P169' 45984
  'P170' 45984
  'P171' 45984
  'P172' 45984
  'P173' 45985
  'P174' 45985
  'P175' 45984
  'P176' 45984
  'P177' 45985
  'P178' 45984
  'P179' 45984
  'P180' 45984
  'P181' 45985
  'P182' 45985
  'P183' 45985
  'P184' 45984
  'P185' 45984
  'P186' 45984
  'P187' 45984
  'P188' 45984
  'P189' 45985
  'P190' 45984
  'P191' 45985
  'P192' 45984
  'P193' 45984
  'P194' 45984
  'P195' 45984
  'P196' 45985
  'P197' 45984
  'P198' 45984
  'P199' 45984
  'P200' 45984
;
param cli :=
  'P1' 'C7'
  'P2' 'C2'
  'P3' 'C7'
  'P4' 'C15'
  'P5' 'C13'
  'P6' 'C4'
  'P7' 'C6'
  'P8' 'C1'
  'P9' 'C7'
  'P10' 'C4'
  'P11' 'C11'
  'P12' 'C3'
  'P13' 'C14'
  'P14' 'C14'
  'P15' 'C9'
  'P16' 'C3'
  'P17' 'C3'
  'P18' 'C9'
  'P19' 'C12'
  'P20' 'C11'
  'P21' 'C13'
  'P22' 'C4'
  'P23' 'C8'
  'P24' 'C13'
  'P25' 'C5'
  'P26' 'C13'
  'P27' 'C14'
  'P28' 'C9'
  'P29' 'C9'
  'P30' 'C10'
  'P31' 'C4'
  'P32' 'C3'
  'P33' 'C6'
  'P34' 'C5'
  'P35' 'C9'
  'P36' 'C8'
  'P37' 'C1'
  'P38' 'C10'
  'P39' 'C12'
  'P40' 'C8'
  'P41' 'C5'
  'P42' 'C12'
  'P43' 'C5'
  'P44' 'C6'
  'P45' 'C9'
  'P46' 'C11'
  'P47' 'C13'
  'P48' 'C7'
  'P49' 'C15'
  'P50' 'C5'
  'P51' 'C6'
  'P52' 'C6'
  'P53' 'C14'
  'P54' 'C11'
  'P55' 'C10'
  'P56' 'C12'
  'P57' 'C5'
  'P58' 'C6'
  'P59' 'C13'
  'P60' 'C4'
  'P61' 'C1'
  'P62' 'C9'
  'P63' 'C9'
  'P64' 'C14'
  'P65' 'C10'
  'P66' 'C7'
  'P67' 'C8'
  'P68' 'C11'
  'P69' 'C2'
  'P70' 'C5'
  'P71' 'C3'
  'P72' 'C10'
  'P73' 'C10'
  'P74' 'C12'
  'P75' 'C14'
  'P76' 'C14'
  'P77' 'C1'
  'P78' 'C9'
  'P79' 'C11'
  'P80' 'C7'
  'P81' 'C6'
  'P82' 'C4'
  'P83' 'C8'
  'P84' 'C10'
  'P85' 'C5'
  'P86' 'C2'
  'P87' 'C6'
  'P88' 'C4'
  'P89' 'C15'
  'P90' 'C12'
  'P91' 'C5'
  'P92' 'C7'
  'P93' 'C8'
  'P94' 'C9'
  'P95' 'C3'
  'P96' 'C1'
  'P97' 'C1'
  'P98' 'C1'
  'P99' 'C7'
  'P100' 'C7'
  'P101' 'C12'
  'P102' 'C12'
  'P103' 'C3'
  'P104' 'C6'
  'P105' 'C1'
  'P106' 'C13'
  'P107' 'C5'
  'P108' 'C6'
  'P109' 'C4'
  'P110' 'C14'
  'P111' 'C13'
  'P112' 'C8'
  'P113' 'C15'
  'P114' 'C14'
  'P115' 'C13'
  'P116' 'C9'
  'P117' 'C7'
  'P118' 'C1'
  'P119' 'C15'
  'P120' 'C9'
  'P121' 'C2'
  'P122' 'C1'
  'P123' 'C13'
  'P124' 'C13'
  'P125' 'C13'
  'P126' 'C6'
  'P127' 'C11'
  'P128' 'C7'
  'P129' 'C5'
  'P130' 'C12'
  'P131' 'C10'
  'P132' 'C7'
  'P133' 'C4'
  'P134' 'C15'
  'P135' 'C10'
  'P136' 'C11'
  'P137' 'C1'
  'P138' 'C14'
  'P139' 'C11'
  'P140' 'C9'
  'P141' 'C8'
  'P142' 'C14'
  'P143' 'C7'
  'P144' 'C6'
  'P145' 'C2'
  'P146' 'C10'
  'P147' 'C4'
  'P148' 'C15'
  'P149' 'C14'
  'P150' 'C8'
  'P151' 'C2'
  'P152' 'C13'
  'P153' 'C6'
  'P154' 'C4'
  'P155' 'C2'
  'P156' 'C3'
  'P157' 'C5'
  'P158' 'C9'
  'P159' 'C12'
  'P160' 'C2'
  'P161' 'C15'
  'P162' 'C10'
  'P163' 'C15'
  'P164' 'C4'
  'P165' 'C8'
  'P166' 'C13'
  'P167' 'C1'
  'P168' 'C9'
  'P169' 'C6'
  'P170' 'C3'
  'P171' 'C5'
  'P172' 'C11'
  'P173' 'C12'
  'P174' 'C4'
  'P175' 'C10'
  'P176' 'C15'
  'P177' 'C11'
  'P178' 'C8'
  'P179' 'C11'
  'P180' 'C13'
  'P181' 'C1'
  'P182' 'C12'
  'P183' 'C5'
  'P184' 'C6'
  'P185' 'C13'
  'P186' 'C15'
  'P187' 'C1'
  'P188' 'C7'
  'P189' 'C4'
  'P190' 'C10'
  'P191' 'C3'
  'P192' 'C2'
  'P193' 'C5'
  'P194' 'C2'
  'P195' 'C13'
  'P196' 'C7'
  'P197' 'C15'
  'P198' 'C2'
  'P199' 'C5'
  'P200' 'C8'
;
